0 17 16 8 3 10 14 6 13 7 2 16 14 4
18 0 5 2 19 5 18 2 8 13 7 2 4 4
4 12 0 6 19 17 7 19 11 19 15 11 10 15
6 12 1 0 5 1 4 4 19 18 15 16 14 7
6 18 15 10 0 3 7 16 8 11 4 17 14 10
15 6 6 7 7 0 11 17 3 8 14 2 10 16
18 10 17 13 13 1 0 7 15 9 19 8 8 17
15 6 12 13 4 16 14 0 10 11 8 13 9 5
17 14 15 15 11 5 15 10 0 1 9 19 14 6
5 5 10 15 15 10 13 5 16 0 9 2 11 6
18 1 2 19 18 7 1 1 11 5 0 13 7 1
14 12 10 19 17 10 19 18 18 4 14 0 1 7
19 15 2 18 7 14 19 1 4 2 18 17 0 3
5 5 13 18 19 17 1 10 19 9 6 10 14 0
